# Objective value = 2.9818435522759933e+02
x[0] 1
x[1] 1
x[2] 1
x[3] 0
x[4] 0
x[5] 0
x[6] 0
x[7] 1
x[8] 0
x[9] 0
x[10] 1
x[11] 1
x[12] 1
x[13] 0
x[14] 0
x[15] 0
x[16] 0
x[17] 0
x[18] 1
x[19] 1
x[20] 0
x[21] 0
x[22] 1
x[23] 1
x[24] 1
x[25] 0
x[26] 1
x[27] 1
x[28] 1
x[29] 0
x[30] 0
x[31] 1
x[32] 0
x[33] 1
x[34] 1
x[35] 1
x[36] 0
x[37] 0
x[38] 0
x[39] 0
x[40] 0
x[41] 1
x[42] 0
x[43] 1
x[44] 0
x[45] 0
x[46] 0
x[47] 1
x[48] 1
x[49] 1
x[50] 1
x[51] 1
x[52] 0
x[53] 0
x[54] 1
x[55] 1
x[56] 0
x[57] 0
x[58] 1
x[59] 1
x[60] 0
x[61] 0
x[62] 1
x[63] 0
x[64] 0
x[65] 0
x[66] 0
x[67] 1
x[68] 0
x[69] 0
x[70] 0
x[71] 0
x[72] 4.56706047204739e-07
x[73] 0
x[74] 1
x[75] 1
x[76] 0
x[77] 0
x[78] 0
x[79] 1
x[80] 1
x[81] 1
x[82] 0
x[83] 1
x[84] 1
x[85] 1
x[86] 1
x[87] 0
x[88] 0
x[89] 0
x[90] 1
x[91] 0
x[92] 1
x[93] 0
x[94] 1
x[95] 1
x[96] 0
x[97] 1
x[98] 0
x[99] 1
x[100] 0
x[101] 0
x[102] 1
x[103] 0
x[104] 0
x[105] 0
x[106] 1
x[107] 1
x[108] 1
x[109] 1
x[110] 0
x[111] 0
x[112] 1
x[113] 1
x[114] 0
x[115] 0
x[116] 0
x[117] 1
x[118] 0
x[119] 0
x[120] 1
x[121] 1
x[122] 0
x[123] 1
x[124] 1
x[125] 1
x[126] 1
x[127] 0
x[128] 1
x[129] 0
x[130] 1
x[131] 1
x[132] 1
x[133] 0
x[134] 1
x[135] 0
x[136] 1
x[137] 0
x[138] 1
x[139] 1
x[140] 1
x[141] 1
x[142] 0
x[143] 0
x[144] 1
x[145] 1
x[146] 0
x[147] 1
x[148] 1
x[149] 1
x[150] 1
x[151] 1
x[152] 1
x[153] 1
x[154] 1
x[155] 0
x[156] 0
x[157] 0
x[158] 1
x[159] 0
x[160] 1
x[161] 1
x[162] 0
x[163] 0
x[164] 0
x[165] 0
x[166] 1
x[167] 0
x[168] 0
x[169] 1
x[170] 0
x[171] 1
x[172] 0
x[173] 1
x[174] 0
x[175] 0
x[176] 1
x[177] 0
x[178] 0
x[179] 1
x[180] 1
x[181] 1
x[182] 1
x[183] 0
x[184] 1
x[185] 0
x[186] 1
x[187] 1
x[188] 6.87216119095925e-07
x[189] 0
x[190] 0
x[191] 1
x[192] 1
x[193] 1
x[194] 0
x[195] 0
x[196] 0
x[197] 1
x[198] 1
x[199] 0
x[200] 1
x[201] 1
x[202] 0
x[203] 1
x[204] 0
x[205] 1
x[206] 0
x[207] 1
x[208] 0
x[209] 1
x[210] 0
x[211] 0
x[212] 1
x[213] 1
x[214] 1
x[215] 0
x[216] 1
x[217] 1
x[218] 1
x[219] 0
x[220] 1
x[221] 0
x[222] 0
x[223] 1
x[224] 1
x[225] 0
x[226] 0
x[227] 1
x[228] 0
x[229] 0
x[230] 1
x[231] 1
x[232] 0
x[233] 1
x[234] 0
x[235] 0
x[236] 0
x[237] 0
x[238] 1
x[239] 1
x[240] 1
x[241] 1
x[242] 1
x[243] 1
x[244] 1
x[245] 0
x[246] 1
x[247] 1
x[248] 0
x[249] 0
x[250] 1
x[251] 0
x[252] 1
x[253] 0
x[254] 0
x[255] 0
x[256] 0
x[257] 1
x[258] 0
x[259] 0
x[260] 0
x[261] 0
x[262] 0
x[263] 0
x[264] 0
x[265] 0
x[266] 0
x[267] 0
x[268] 1
x[269] 0
x[270] 0
x[271] 1
x[272] 1
x[273] 1
x[274] 1
x[275] 1
x[276] 0
x[277] 0
x[278] 0
x[279] 1
x[280] 1
x[281] 1
x[282] 0
x[283] 1
x[284] 0
x[285] 1
x[286] 1
x[287] 0
x[288] 0
x[289] 0
x[290] 0
x[291] 1
x[292] 1
x[293] 0
x[294] 0
x[295] 1
x[296] 0
x[297] 0
x[298] 1
x[299] 0
x[300] 0
x[301] 0
x[302] 0
x[303] 1
x[304] 0
x[305] 0
x[306] 1
x[307] 1
x[308] 1
x[309] 0
x[310] 0
x[311] 0
x[312] 0
x[313] 0
x[314] 0
x[315] 1
x[316] 1
x[317] 1
x[318] 0
x[319] 1
x[320] 0
x[321] 1
x[322] 1
x[323] 1
x[324] 1
x[325] 0
x[326] 0
x[327] 0
x[328] 1
x[329] 0
x[330] 1
x[331] 0
x[332] 1
x[333] 0
x[334] 0
x[335] 1
x[336] 0
x[337] 1
x[338] 1
x[339] 0
x[340] 1
x[341] 0
x[342] 0
x[343] 0
x[344] 0
x[345] 1
x[346] 0
x[347] 1
x[348] 1
x[349] 1
x[350] 1
x[351] 1
x[352] 0
x[353] 0
x[354] 1
x[355] 0
x[356] 1
x[357] 0
x[358] 0
x[359] 1
x[360] 1
x[361] 1
x[362] 0
x[363] 0
x[364] 0
x[365] 1
x[366] 0
x[367] 1
x[368] 0
x[369] 1
x[370] 0
x[371] 1
x[372] 1
x[373] 0
x[374] 0
x[375] 1
x[376] 0
x[377] 1
x[378] 1
x[379] 0
x[380] 1
x[381] 0
x[382] 0
x[383] 1
x[384] 1
x[385] 1
x[386] 1
x[387] 1
x[388] 1
x[389] 0
x[390] 0
x[391] 0
x[392] 0
x[393] 1
x[394] 1
x[395] 1
x[396] 0
x[397] 1
x[398] 1
x[399] 1
x[400] 1
x[401] 1
x[402] 0
x[403] 1
x[404] 1
x[405] 0
x[406] 1
x[407] 1
x[408] 0
x[409] 0
x[410] 0
x[411] 1
x[412] 0
x[413] 1
x[414] 0
x[415] 0
x[416] 1
x[417] 0
x[418] 1
x[419] 0
x[420] 1
x[421] 0
x[422] 0
x[423] 1
x[424] 0
x[425] 0
x[426] 1
x[427] 1
x[428] 1
x[429] 1
x[430] 0
x[431] 0
x[432] 0
x[433] 0
x[434] 1
x[435] 1
x[436] 1
x[437] 0
x[438] 0
x[439] 1
x[440] 1
x[441] 1
x[442] 1
x[443] 1
x[444] 0
x[445] 0
x[446] 0
x[447] 1
x[448] 1
x[449] 1
x[450] 0
x[451] 1
x[452] 1
x[453] 1
x[454] 0
x[455] 0
x[456] 0
x[457] 0
x[458] 0
x[459] 1
x[460] 0
x[461] 0
x[462] 0
x[463] 1
x[464] 1
x[465] 0
x[466] 1
x[467] 1
x[468] 0
x[469] 0
x[470] 0
x[471] 1
x[472] 1
x[473] 0
x[474] 0
x[475] 1
x[476] 0
x[477] 0
x[478] 0
x[479] 0
x[480] 0
x[481] 1
x[482] 0
x[483] 0
x[484] 0
x[485] 0
x[486] 0
x[487] 0
x[488] 1
x[489] 1
x[490] 0
x[491] 1
x[492] 0
x[493] 0
x[494] 0
x[495] 1
x[496] 1
x[497] 1
x[498] 1
x[499] 0
x[500] 1
x[501] 0
x[502] 1
x[503] 1
x[504] 0
x[505] 1
x[506] 0
x[507] 0
x[508] 0
x[509] 0
x[510] 1
x[511] 1
x[512] 0
x[513] 0
x[514] 0
x[515] 1
x[516] 0
x[517] 0
x[518] 0
x[519] 1
x[520] 0
x[521] 0
x[522] 1
x[523] 0
x[524] 1
x[525] 1
x[526] 1
x[527] 1
x[528] 0
x[529] 0
x[530] 1
x[531] 0
x[532] 1
x[533] 0
x[534] 1
x[535] 1
x[536] 1
x[537] 0
x[538] 0
x[539] 1
x[540] 0
x[541] 0
x[542] 1
x[543] 1
x[544] 0
x[545] 0
x[546] 1
x[547] 1
x[548] 1
x[549] 1
x[550] 0
x[551] 0
x[552] 1
x[553] 1
x[554] 0
x[555] 1
x[556] 0
x[557] 1
x[558] 1
x[559] 0
x[560] 1
x[561] 1
x[562] 0
x[563] 1
x[564] 1
x[565] 0
x[566] 0
x[567] 0
x[568] 0
x[569] 1
x[570] 1
x[571] 0
x[572] 0
x[573] 0
x[574] 1
x[575] 1
x[576] 0
x[577] 0
x[578] 1
x[579] 0
x[580] 0
x[581] 1
x[582] 1
x[583] 1
x[584] 0
x[585] 1
x[586] 0
x[587] 1
x[588] 0
x[589] 0
x[590] 0
x[591] 0
x[592] 0
x[593] 0
x[594] 0
x[595] 0
x[596] 0
x[597] 1
x[598] 1
x[599] 0
x[600] 1
x[601] 1
x[602] 1
x[603] 1
x[604] 0
x[605] 1
x[606] 1
x[607] 1
x[608] 1
x[609] 0
x[610] 1
x[611] 1
x[612] 0
x[613] 0
x[614] 1
x[615] 0
x[616] 0
x[617] 1
x[618] 0
x[619] 0
x[620] 1
x[621] 1
x[622] 1
x[623] 1
x[624] 0
x[625] 0
x[626] 1
x[627] 1
x[628] 1
x[629] 1
x[630] 1
x[631] 0
x[632] 1
x[633] 0
x[634] 0
x[635] 0
x[636] 0
x[637] 1
x[638] 1
x[639] 0
x[640] 1
x[641] 0
x[642] 0
x[643] 1
x[644] 0
x[645] 0
x[646] 0
x[647] 0
x[648] 1
x[649] 0
x[650] 1
x[651] 1
x[652] 0
x[653] 1
x[654] 0
x[655] 0
x[656] 1
x[657] 1
x[658] 1
x[659] 1
x[660] 1
x[661] 0
x[662] 0
x[663] 0
x[664] 0
x[665] 0
x[666] 0
x[667] 0
x[668] 0
x[669] 0
x[670] 0
x[671] 1
x[672] 0
x[673] 1
x[674] 1
x[675] 0
x[676] 1
x[677] 1
x[678] 1
x[679] 0
x[680] 1
x[681] 1
x[682] 0
x[683] 0
x[684] 0
x[685] 1
x[686] 1
x[687] 0
x[688] 0
x[689] 0
x[690] 1
x[691] 0
x[692] 0
x[693] 1
x[694] 1
x[695] 0
x[696] 1
x[697] 1
x[698] 0
x[699] 0
x[700] 1
x[701] 1
x[702] 1
x[703] 0
x[704] 0
x[705] 1
x[706] 1
x[707] 1
x[708] 1
x[709] 1
x[710] 1
x[711] 0
x[712] 1
x[713] 1
x[714] 1
x[715] 1
x[716] 1
x[717] 1
x[718] 0
x[719] 1
x[720] 1
x[721] 1
x[722] 0
x[723] 0
x[724] 1
x[725] 0
x[726] 1
x[727] 0
x[728] 1
x[729] 1
x[730] 0
x[731] 1
x[732] 0
x[733] 1
x[734] 0
x[735] 0
x[736] 0
x[737] 0
x[738] 1
x[739] 0
x[740] 1
x[741] 0
x[742] 1
x[743] 0
x[744] 1
x[745] 1
x[746] 0
x[747] 0
x[748] 1
x[749] 1
x[750] 0
x[751] 0
x[752] 1
x[753] 0
x[754] 1
x[755] 1
x[756] 1
x[757] 0
x[758] 1
x[759] 0
x[760] 0
x[761] 1
x[762] 0
x[763] 0
x[764] 0
x[765] 1
x[766] 0
x[767] 0
x[768] 0
x[769] 1
x[770] 0
x[771] 1
x[772] 1
x[773] 0
x[774] 0
x[775] 0
x[776] 1
x[777] 1
x[778] 0
x[779] 1
x[780] 0
x[781] 0
x[782] 0
x[783] 0
x[784] 1
x[785] 1
x[786] 0
x[787] 1
x[788] 1
x[789] 0
x[790] 1
x[791] 1
x[792] 0
x[793] 0
x[794] 0
x[795] 0
x[796] 1
x[797] 1
x[798] 0
x[799] 0
x[800] 0
x[801] 1
x[802] 0
x[803] 1
x[804] 1
x[805] 0
x[806] 0
x[807] 1
x[808] 0
x[809] 1
x[810] 0
x[811] 1
x[812] 1
x[813] 0
x[814] 1
x[815] 1
x[816] 1
x[817] 0
x[818] 0
x[819] 0
x[820] 1
x[821] 0
x[822] 1
x[823] 0
x[824] 1
x[825] 1
x[826] 1
x[827] 1
x[828] 0
x[829] 1
x[830] 0
x[831] 0
x[832] 0
x[833] 1
x[834] 0
x[835] 0
x[836] 0
x[837] 1
x[838] 0
x[839] 1
x[840] 0
x[841] 0
x[842] 1
x[843] 1
x[844] 1
x[845] 0
x[846] 0
x[847] 1
x[848] 0
x[849] 1
x[850] 0
x[851] 1
x[852] 1
x[853] 1
x[854] 1
x[855] 0
x[856] 0
x[857] 1
x[858] 0
x[859] 1
x[860] 0
x[861] 0
x[862] 1
x[863] 1
x[864] 1
x[865] 1
x[866] 1
x[867] 0
x[868] 0
x[869] 1
x[870] 1
x[871] 0
x[872] 1
x[873] 0
x[874] 1
x[875] 0
x[876] 1
x[877] 0
x[878] 1
x[879] 0
x[880] 0
x[881] 0
x[882] 0
x[883] 0
x[884] 0
x[885] 1
x[886] 0
x[887] 0
x[888] 1
x[889] 0
x[890] 1
x[891] 0
x[892] 0
x[893] 1
x[894] 1
x[895] 0
x[896] 0
x[897] 0
x[898] 1
x[899] 0
x[900] 0
x[901] 0
x[902] 1
x[903] 0
x[904] 1
x[905] 1
x[906] 1
x[907] 1
x[908] 0
x[909] 1
x[910] 1
x[911] 1
x[912] 0
x[913] 1
x[914] 1
x[915] 1
x[916] 1
x[917] 0
x[918] 0
x[919] 1
x[920] 1
x[921] 1
x[922] 0
x[923] 1
x[924] 0
x[925] 1
x[926] 0
x[927] 0
x[928] 1
x[929] 0
x[930] 1
x[931] 0
x[932] 0
x[933] 1
x[934] 1
x[935] 0
x[936] 1
x[937] 0
x[938] 1
x[939] 1
x[940] 1
x[941] 1
x[942] 0
x[943] 1
x[944] 1
x[945] 0
x[946] 0
x[947] 1
x[948] 0
x[949] 1
x[950] 0
x[951] 1
x[952] 0
x[953] 0
x[954] 0
x[955] 0
x[956] 0
x[957] 1
x[958] 0
x[959] 0
x[960] 1
x[961] 1
x[962] 0
x[963] 0
x[964] 0
x[965] 0
x[966] 0
x[967] 1
x[968] 0
x[969] 0
x[970] 1
x[971] 1
x[972] 1
x[973] 1
x[974] 1
x[975] 1
x[976] 0
x[977] 0
x[978] 0
x[979] 1
x[980] 0
x[981] 0
x[982] 0
x[983] 1
x[984] 0
x[985] 1
x[986] 0
x[987] 0
x[988] 0
x[989] 1
x[990] 0
x[991] 0
x[992] 0
x[993] 1
x[994] 0
x[995] 1
x[996] 0
x[997] 0
x[998] 0
x[999] 0
